%chk=h2o_freq
#hf sto-3g  opt=z-matrix freq nosym


0 1
O
H1 O R
H2 O R H1 A

R = 1.
A = 100.

