%chk=H2O_freq3
#hf sto-3g  freq nosym


0 1
      8     0           0.000000000           0.000000000           0.000000000
      1     0           0.758082919           0.000000000           0.635803738
      1     0          -0.758082919          -0.000000000           0.635803738

